data;

param n:=29;
param p:=3;
param r:=[1] 0 [2] 0 [3] 6 [4] 9 [5] 7 [6] 11 [7] 2 [8] 9 [9] 22 [10] 19 [11] 29 [12] 8 [13] 33 [14] 19 [15] 10 [16] 33 [17] 40 [18] 2 [19] 4 [20] 15 [21] 19 [22] 63 [23] 38 [24] 51 [25] 27 [26] 41 [27] 62 [28] 7 [29] 38 ;
param w:=[1] 26 [2] 57 [3] 36 [4] 12 [5] 16 [6] 62 [7] 61 [8] 56 [9] 22 [10] 6 [11] 49 [12] 30 [13] 62 [14] 26 [15] 81 [16] 98 [17] 13 [18] 86 [19] 67 [20] 53 [21] 51 [22] 3 [23] 76 [24] 52 [25] 18 [26] 97 [27] 47 [28] 50 [29] 27 ;

end;
